NAME: random-9-17568
TYPE: TSP
COMMENT: size=9 seed=17568
DIMENSION: 20
EDGE_WEIGHT_TYPE: EUC_2D
NODE_COORD_SECTION
+0 376 862
-0 376 862
+1 967 134
-1 570 582
+2 613 972
-2 81 845
+3 550 127
-3 83 369
+4 606 727
-4 575 38
+5 6 937
-5 203 961
+6 425 665
-6 327 168
+7 212 534
-7 272 838
+8 146 705
-8 723 942
+9 314 296
-9 602 882
PRECEDENCE_SECTION
+0 -0
+1 -1
+2 -2
+3 -3
+4 -4
+5 -5
+6 -6
+7 -7
+8 -8
+9 -9
EOF
